c 1 A1
c 2 C2
c 3 C3
c 4 C4
c 5 C6
c 6 C7
c 7 C8
c 8 A5
c 9 C9
c 10 C10
c 11 C11
p cnf 11 18
1 0
1 -2 0
1 -3 0
1 -4 0
1 -8 0
1 -5 0
1 -6 0
1 -7 0
3 -1 0
4 -1 0
7 -1 0
8 -9 0
8 -10 0
8 -11 0
9 -8 0
10 -8 0
3 -4 0
-3 4 0